c A SAT instance generated from a 3-CNF formula that had 20 clauses and 10 variables
p cnf 10 20
-3 -9 6 0
-7 8 -1 0
1 6 9 0
-5 7 -1 0
-5 9 10 0
7 1 2 0
-2 -5 -1 0
-7 -2 10 0
-4 -9 7 0
-4 5 6 0
3 -9 -1 0
7 -4 6 0
10 -4 2 0
2 -3 7 0
9 2 10 0
8 -3 5 0
2 -1 5 0
2 -10 -5 0
3 -9 10 0
-2 -9 -10 0
%
0

45 70 53 89 30 62 46 57 14 59
